InboundTrucks  = 8;
OutboundTrucks = 5;
InboundDoors   = 2;
OutboundDoors  = 1;
ReleaseTime    = [6,10,15,6,12,13,19,5];
UnloadTime     = [4,7,9,4,3,8,7,7];
LoadTime       = [5,7,4,6,8];
TransferTime   = [| 1,3,2,5,4 | 4,1,4,5,1 | 3,1,3,4,2 | 3,2,5,1,1 | 4,5,3,4,4 | 4,5,1,5,2 | 1,2,4,4,5 | 5,1,3,2,4 |];
